c *********************************
c * Circuit generated by BenCGen
c *
c * Parity_187
c *
c * Ports with 1 gate(s): 1
c * Ports with 2 gate(s): 187
c * Total gates: 188
c *********************************
p cnf 375 749
1 190 0
-1 -190 0
1 -189 0
190 -189 0
-1 -190 189 0
1 2 -191 0
-1 2 191 0
1 -2 191 0
-1 -2 -191 0
3 4 -192 0
-3 4 192 0
3 -4 192 0
-3 -4 -192 0
5 6 -193 0
-5 6 193 0
5 -6 193 0
-5 -6 -193 0
7 8 -194 0
-7 8 194 0
7 -8 194 0
-7 -8 -194 0
9 10 -195 0
-9 10 195 0
9 -10 195 0
-9 -10 -195 0
11 12 -196 0
-11 12 196 0
11 -12 196 0
-11 -12 -196 0
13 14 -197 0
-13 14 197 0
13 -14 197 0
-13 -14 -197 0
15 16 -198 0
-15 16 198 0
15 -16 198 0
-15 -16 -198 0
17 18 -199 0
-17 18 199 0
17 -18 199 0
-17 -18 -199 0
19 20 -200 0
-19 20 200 0
19 -20 200 0
-19 -20 -200 0
21 22 -201 0
-21 22 201 0
21 -22 201 0
-21 -22 -201 0
23 24 -202 0
-23 24 202 0
23 -24 202 0
-23 -24 -202 0
25 26 -203 0
-25 26 203 0
25 -26 203 0
-25 -26 -203 0
27 28 -204 0
-27 28 204 0
27 -28 204 0
-27 -28 -204 0
29 30 -205 0
-29 30 205 0
29 -30 205 0
-29 -30 -205 0
31 32 -206 0
-31 32 206 0
31 -32 206 0
-31 -32 -206 0
33 34 -207 0
-33 34 207 0
33 -34 207 0
-33 -34 -207 0
35 36 -208 0
-35 36 208 0
35 -36 208 0
-35 -36 -208 0
37 38 -209 0
-37 38 209 0
37 -38 209 0
-37 -38 -209 0
39 40 -210 0
-39 40 210 0
39 -40 210 0
-39 -40 -210 0
41 42 -211 0
-41 42 211 0
41 -42 211 0
-41 -42 -211 0
43 44 -212 0
-43 44 212 0
43 -44 212 0
-43 -44 -212 0
45 46 -213 0
-45 46 213 0
45 -46 213 0
-45 -46 -213 0
47 48 -214 0
-47 48 214 0
47 -48 214 0
-47 -48 -214 0
49 50 -215 0
-49 50 215 0
49 -50 215 0
-49 -50 -215 0
51 52 -216 0
-51 52 216 0
51 -52 216 0
-51 -52 -216 0
53 54 -217 0
-53 54 217 0
53 -54 217 0
-53 -54 -217 0
55 56 -218 0
-55 56 218 0
55 -56 218 0
-55 -56 -218 0
57 58 -219 0
-57 58 219 0
57 -58 219 0
-57 -58 -219 0
59 60 -220 0
-59 60 220 0
59 -60 220 0
-59 -60 -220 0
61 62 -221 0
-61 62 221 0
61 -62 221 0
-61 -62 -221 0
63 64 -222 0
-63 64 222 0
63 -64 222 0
-63 -64 -222 0
65 66 -223 0
-65 66 223 0
65 -66 223 0
-65 -66 -223 0
67 68 -224 0
-67 68 224 0
67 -68 224 0
-67 -68 -224 0
69 70 -225 0
-69 70 225 0
69 -70 225 0
-69 -70 -225 0
71 72 -226 0
-71 72 226 0
71 -72 226 0
-71 -72 -226 0
73 74 -227 0
-73 74 227 0
73 -74 227 0
-73 -74 -227 0
75 76 -228 0
-75 76 228 0
75 -76 228 0
-75 -76 -228 0
77 78 -229 0
-77 78 229 0
77 -78 229 0
-77 -78 -229 0
79 80 -230 0
-79 80 230 0
79 -80 230 0
-79 -80 -230 0
81 82 -231 0
-81 82 231 0
81 -82 231 0
-81 -82 -231 0
83 84 -232 0
-83 84 232 0
83 -84 232 0
-83 -84 -232 0
85 86 -233 0
-85 86 233 0
85 -86 233 0
-85 -86 -233 0
87 88 -234 0
-87 88 234 0
87 -88 234 0
-87 -88 -234 0
89 90 -235 0
-89 90 235 0
89 -90 235 0
-89 -90 -235 0
91 92 -236 0
-91 92 236 0
91 -92 236 0
-91 -92 -236 0
93 94 -237 0
-93 94 237 0
93 -94 237 0
-93 -94 -237 0
95 96 -238 0
-95 96 238 0
95 -96 238 0
-95 -96 -238 0
97 98 -239 0
-97 98 239 0
97 -98 239 0
-97 -98 -239 0
99 100 -240 0
-99 100 240 0
99 -100 240 0
-99 -100 -240 0
101 102 -241 0
-101 102 241 0
101 -102 241 0
-101 -102 -241 0
103 104 -242 0
-103 104 242 0
103 -104 242 0
-103 -104 -242 0
105 106 -243 0
-105 106 243 0
105 -106 243 0
-105 -106 -243 0
107 108 -244 0
-107 108 244 0
107 -108 244 0
-107 -108 -244 0
109 110 -245 0
-109 110 245 0
109 -110 245 0
-109 -110 -245 0
111 112 -246 0
-111 112 246 0
111 -112 246 0
-111 -112 -246 0
113 114 -247 0
-113 114 247 0
113 -114 247 0
-113 -114 -247 0
115 116 -248 0
-115 116 248 0
115 -116 248 0
-115 -116 -248 0
117 118 -249 0
-117 118 249 0
117 -118 249 0
-117 -118 -249 0
119 120 -250 0
-119 120 250 0
119 -120 250 0
-119 -120 -250 0
121 122 -251 0
-121 122 251 0
121 -122 251 0
-121 -122 -251 0
123 124 -252 0
-123 124 252 0
123 -124 252 0
-123 -124 -252 0
125 126 -253 0
-125 126 253 0
125 -126 253 0
-125 -126 -253 0
127 128 -254 0
-127 128 254 0
127 -128 254 0
-127 -128 -254 0
129 130 -255 0
-129 130 255 0
129 -130 255 0
-129 -130 -255 0
131 132 -256 0
-131 132 256 0
131 -132 256 0
-131 -132 -256 0
133 134 -257 0
-133 134 257 0
133 -134 257 0
-133 -134 -257 0
135 136 -258 0
-135 136 258 0
135 -136 258 0
-135 -136 -258 0
137 138 -259 0
-137 138 259 0
137 -138 259 0
-137 -138 -259 0
139 140 -260 0
-139 140 260 0
139 -140 260 0
-139 -140 -260 0
141 142 -261 0
-141 142 261 0
141 -142 261 0
-141 -142 -261 0
143 144 -262 0
-143 144 262 0
143 -144 262 0
-143 -144 -262 0
145 146 -263 0
-145 146 263 0
145 -146 263 0
-145 -146 -263 0
147 148 -264 0
-147 148 264 0
147 -148 264 0
-147 -148 -264 0
149 150 -265 0
-149 150 265 0
149 -150 265 0
-149 -150 -265 0
151 152 -266 0
-151 152 266 0
151 -152 266 0
-151 -152 -266 0
153 154 -267 0
-153 154 267 0
153 -154 267 0
-153 -154 -267 0
155 156 -268 0
-155 156 268 0
155 -156 268 0
-155 -156 -268 0
157 158 -269 0
-157 158 269 0
157 -158 269 0
-157 -158 -269 0
159 160 -270 0
-159 160 270 0
159 -160 270 0
-159 -160 -270 0
161 162 -271 0
-161 162 271 0
161 -162 271 0
-161 -162 -271 0
163 164 -272 0
-163 164 272 0
163 -164 272 0
-163 -164 -272 0
165 166 -273 0
-165 166 273 0
165 -166 273 0
-165 -166 -273 0
167 168 -274 0
-167 168 274 0
167 -168 274 0
-167 -168 -274 0
169 170 -275 0
-169 170 275 0
169 -170 275 0
-169 -170 -275 0
171 172 -276 0
-171 172 276 0
171 -172 276 0
-171 -172 -276 0
173 174 -277 0
-173 174 277 0
173 -174 277 0
-173 -174 -277 0
175 176 -278 0
-175 176 278 0
175 -176 278 0
-175 -176 -278 0
177 178 -279 0
-177 178 279 0
177 -178 279 0
-177 -178 -279 0
179 180 -280 0
-179 180 280 0
179 -180 280 0
-179 -180 -280 0
181 182 -281 0
-181 182 281 0
181 -182 281 0
-181 -182 -281 0
183 184 -282 0
-183 184 282 0
183 -184 282 0
-183 -184 -282 0
185 186 -283 0
-185 186 283 0
185 -186 283 0
-185 -186 -283 0
191 192 -284 0
-191 192 284 0
191 -192 284 0
-191 -192 -284 0
193 194 -285 0
-193 194 285 0
193 -194 285 0
-193 -194 -285 0
195 196 -286 0
-195 196 286 0
195 -196 286 0
-195 -196 -286 0
197 198 -287 0
-197 198 287 0
197 -198 287 0
-197 -198 -287 0
199 200 -288 0
-199 200 288 0
199 -200 288 0
-199 -200 -288 0
201 202 -289 0
-201 202 289 0
201 -202 289 0
-201 -202 -289 0
203 204 -290 0
-203 204 290 0
203 -204 290 0
-203 -204 -290 0
205 206 -291 0
-205 206 291 0
205 -206 291 0
-205 -206 -291 0
207 208 -292 0
-207 208 292 0
207 -208 292 0
-207 -208 -292 0
209 210 -293 0
-209 210 293 0
209 -210 293 0
-209 -210 -293 0
211 212 -294 0
-211 212 294 0
211 -212 294 0
-211 -212 -294 0
213 214 -295 0
-213 214 295 0
213 -214 295 0
-213 -214 -295 0
215 216 -296 0
-215 216 296 0
215 -216 296 0
-215 -216 -296 0
217 218 -297 0
-217 218 297 0
217 -218 297 0
-217 -218 -297 0
219 220 -298 0
-219 220 298 0
219 -220 298 0
-219 -220 -298 0
221 222 -299 0
-221 222 299 0
221 -222 299 0
-221 -222 -299 0
223 224 -300 0
-223 224 300 0
223 -224 300 0
-223 -224 -300 0
225 226 -301 0
-225 226 301 0
225 -226 301 0
-225 -226 -301 0
227 228 -302 0
-227 228 302 0
227 -228 302 0
-227 -228 -302 0
229 230 -303 0
-229 230 303 0
229 -230 303 0
-229 -230 -303 0
231 232 -304 0
-231 232 304 0
231 -232 304 0
-231 -232 -304 0
233 234 -305 0
-233 234 305 0
233 -234 305 0
-233 -234 -305 0
235 236 -306 0
-235 236 306 0
235 -236 306 0
-235 -236 -306 0
237 238 -307 0
-237 238 307 0
237 -238 307 0
-237 -238 -307 0
239 240 -308 0
-239 240 308 0
239 -240 308 0
-239 -240 -308 0
241 242 -309 0
-241 242 309 0
241 -242 309 0
-241 -242 -309 0
243 244 -310 0
-243 244 310 0
243 -244 310 0
-243 -244 -310 0
245 246 -311 0
-245 246 311 0
245 -246 311 0
-245 -246 -311 0
247 248 -312 0
-247 248 312 0
247 -248 312 0
-247 -248 -312 0
249 250 -313 0
-249 250 313 0
249 -250 313 0
-249 -250 -313 0
251 252 -314 0
-251 252 314 0
251 -252 314 0
-251 -252 -314 0
253 254 -315 0
-253 254 315 0
253 -254 315 0
-253 -254 -315 0
255 256 -316 0
-255 256 316 0
255 -256 316 0
-255 -256 -316 0
257 258 -317 0
-257 258 317 0
257 -258 317 0
-257 -258 -317 0
259 260 -318 0
-259 260 318 0
259 -260 318 0
-259 -260 -318 0
261 262 -319 0
-261 262 319 0
261 -262 319 0
-261 -262 -319 0
263 264 -320 0
-263 264 320 0
263 -264 320 0
-263 -264 -320 0
265 266 -321 0
-265 266 321 0
265 -266 321 0
-265 -266 -321 0
267 268 -322 0
-267 268 322 0
267 -268 322 0
-267 -268 -322 0
269 270 -323 0
-269 270 323 0
269 -270 323 0
-269 -270 -323 0
271 272 -324 0
-271 272 324 0
271 -272 324 0
-271 -272 -324 0
273 274 -325 0
-273 274 325 0
273 -274 325 0
-273 -274 -325 0
275 276 -326 0
-275 276 326 0
275 -276 326 0
-275 -276 -326 0
277 278 -327 0
-277 278 327 0
277 -278 327 0
-277 -278 -327 0
279 280 -328 0
-279 280 328 0
279 -280 328 0
-279 -280 -328 0
281 282 -329 0
-281 282 329 0
281 -282 329 0
-281 -282 -329 0
283 187 -330 0
-283 187 330 0
283 -187 330 0
-283 -187 -330 0
284 285 -331 0
-284 285 331 0
284 -285 331 0
-284 -285 -331 0
286 287 -332 0
-286 287 332 0
286 -287 332 0
-286 -287 -332 0
288 289 -333 0
-288 289 333 0
288 -289 333 0
-288 -289 -333 0
290 291 -334 0
-290 291 334 0
290 -291 334 0
-290 -291 -334 0
292 293 -335 0
-292 293 335 0
292 -293 335 0
-292 -293 -335 0
294 295 -336 0
-294 295 336 0
294 -295 336 0
-294 -295 -336 0
296 297 -337 0
-296 297 337 0
296 -297 337 0
-296 -297 -337 0
298 299 -338 0
-298 299 338 0
298 -299 338 0
-298 -299 -338 0
300 301 -339 0
-300 301 339 0
300 -301 339 0
-300 -301 -339 0
302 303 -340 0
-302 303 340 0
302 -303 340 0
-302 -303 -340 0
304 305 -341 0
-304 305 341 0
304 -305 341 0
-304 -305 -341 0
306 307 -342 0
-306 307 342 0
306 -307 342 0
-306 -307 -342 0
308 309 -343 0
-308 309 343 0
308 -309 343 0
-308 -309 -343 0
310 311 -344 0
-310 311 344 0
310 -311 344 0
-310 -311 -344 0
312 313 -345 0
-312 313 345 0
312 -313 345 0
-312 -313 -345 0
314 315 -346 0
-314 315 346 0
314 -315 346 0
-314 -315 -346 0
316 317 -347 0
-316 317 347 0
316 -317 347 0
-316 -317 -347 0
318 319 -348 0
-318 319 348 0
318 -319 348 0
-318 -319 -348 0
320 321 -349 0
-320 321 349 0
320 -321 349 0
-320 -321 -349 0
322 323 -350 0
-322 323 350 0
322 -323 350 0
-322 -323 -350 0
324 325 -351 0
-324 325 351 0
324 -325 351 0
-324 -325 -351 0
326 327 -352 0
-326 327 352 0
326 -327 352 0
-326 -327 -352 0
328 329 -353 0
-328 329 353 0
328 -329 353 0
-328 -329 -353 0
331 332 -354 0
-331 332 354 0
331 -332 354 0
-331 -332 -354 0
333 334 -355 0
-333 334 355 0
333 -334 355 0
-333 -334 -355 0
335 336 -356 0
-335 336 356 0
335 -336 356 0
-335 -336 -356 0
337 338 -357 0
-337 338 357 0
337 -338 357 0
-337 -338 -357 0
339 340 -358 0
-339 340 358 0
339 -340 358 0
-339 -340 -358 0
341 342 -359 0
-341 342 359 0
341 -342 359 0
-341 -342 -359 0
343 344 -360 0
-343 344 360 0
343 -344 360 0
-343 -344 -360 0
345 346 -361 0
-345 346 361 0
345 -346 361 0
-345 -346 -361 0
347 348 -362 0
-347 348 362 0
347 -348 362 0
-347 -348 -362 0
349 350 -363 0
-349 350 363 0
349 -350 363 0
-349 -350 -363 0
351 352 -364 0
-351 352 364 0
351 -352 364 0
-351 -352 -364 0
353 330 -365 0
-353 330 365 0
353 -330 365 0
-353 -330 -365 0
354 355 -366 0
-354 355 366 0
354 -355 366 0
-354 -355 -366 0
356 357 -367 0
-356 357 367 0
356 -357 367 0
-356 -357 -367 0
358 359 -368 0
-358 359 368 0
358 -359 368 0
-358 -359 -368 0
360 361 -369 0
-360 361 369 0
360 -361 369 0
-360 -361 -369 0
362 363 -370 0
-362 363 370 0
362 -363 370 0
-362 -363 -370 0
364 365 -371 0
-364 365 371 0
364 -365 371 0
-364 -365 -371 0
366 367 -372 0
-366 367 372 0
366 -367 372 0
-366 -367 -372 0
368 369 -373 0
-368 369 373 0
368 -369 373 0
-368 -369 -373 0
370 371 -374 0
-370 371 374 0
370 -371 374 0
-370 -371 -374 0
372 373 -375 0
-372 373 375 0
372 -373 375 0
-372 -373 -375 0
375 374 -188 0
-375 374 188 0
375 -374 188 0
-375 -374 -188 0
